n = 10
Q1 = [0 0 0 0 0 0 9 0 0 0; 0 0 0 12 0 0 36 0 15 0; 0 0 0 42 0 0 0 0 49 0; 0 0 0 0 0 0 0 0 13 0; 0 0 0 0 0 0 0 0 0 0; 0 0 0 0 0 0 0 0 0 0; 0 0 0 0 0 0 0 0 0 0; 0 0 0 0 0 0 0 0 0 6; 0 0 0 0 0 0 0 0 0 0; 0 0 0 0 0 0 0 0 0 0]
Q2 = [0.0 0.0 0.0 0.0 0.0 0.0 48.0 0.0 0.0 0.0; 0.0 0.0 0.0 47.0 0.0 0.0 6.0 0.0 36.0 0.0; 0.0 0.0 0.0 6.0 0.0 0.0 0.0 0.0 0.0 0.0; 0.0 0.0 0.0 0.0 0.0 0.0 0.0 0.0 41.0 0.0; 0.0 0.0 0.0 0.0 0.0 0.0 0.0 0.0 0.0 0.0; 0.0 0.0 0.0 0.0 0.0 0.0 0.0 0.0 0.0 0.0; 0.0 0.0 0.0 0.0 0.0 0.0 0.0 0.0 0.0 0.0; 0.0 0.0 0.0 0.0 0.0 0.0 0.0 0.0 0.0 49.0; 0.0 0.0 0.0 0.0 0.0 0.0 0.0 0.0 0.0 0.0; 0.0 0.0 0.0 0.0 0.0 0.0 0.0 0.0 0.0 0.0]
Q3 = [0 59 59 59 59 59 2 59 59 59; 0 0 59 0 59 59 14 59 4 59; 0 0 0 0 59 59 59 59 2 59; 0 0 0 0 59 59 59 59 0 59; 0 0 0 0 0 59 59 59 59 59; 0 0 0 0 0 0 59 59 59 59; 0 0 0 0 0 0 0 59 59 59; 0 0 0 0 0 0 0 0 59 0; 0 0 0 0 0 0 0 0 0 59; 0 0 0 0 0 0 0 0 0 0]
